
  32    1
  10

   0   0   6 2 3 5 7 8 15 
  10   4   7 16 14 13 10 9 6 4 
   8   6   5 20 16 13 10 4 
   9   7   3 21 12 11 
   8   3   3 31 13 10 
   3   7   5 31 21 20 19 12 
   2   2   8 31 30 24 23 21 20 19 18 
   3   5   7 31 30 28 24 21 19 17 
  10   6   8 31 30 29 27 24 23 21 18 
   1   3   5 24 21 19 18 17 
   3  10   5 31 24 19 18 17 
   1   3   5 30 27 24 23 18 
   5  10   5 30 29 23 21 18 
   5   6   5 29 27 24 23 18 
  10   6   4 29 23 21 18 
   4  10   3 23 19 18 
   9   6   4 29 27 26 23 
   2   4   3 28 26 22 
  10   6   2 27 22 
   3   5   2 29 27 
   4   5   1 22 
   9  10   1 25 
   8   6   1 25 
   5   6   1 26 
   5   3   1 32
   5   8   1 32
   3   8   1 32
   3   5   1 32
   8   6   1 32
   2  10   1 32
   9   4   1 32
   0   0   0 
